
Gurobi 11.0.2 (linux64, gurobi_cl) logging started Mon Mar 24 11:43:45 2025

Set parameter WLSAccessID
Set parameter WLSSecret
Set parameter LicenseID to value 2526083
Set parameter LogFile to value "gurobi.log"
Using license file /home/sebas/gurobi1102/gurobi.lic

Gurobi 11.0.2 (linux64, gurobi_cl) logging started Mon Mar 24 11:45:36 2025

Set parameter WLSAccessID
Set parameter WLSSecret
Set parameter LicenseID to value 2526083
Set parameter LogFile to value "gurobi.log"
Using license file /home/sebas/gurobi1102/gurobi.lic

Gurobi 11.0.2 (linux64, gurobi_cl) logging started Mon Mar 24 11:46:13 2025

Set parameter WLSAccessID
Set parameter WLSSecret
Set parameter LicenseID to value 2526083
Set parameter LogFile to value "gurobi.log"
Using license file /home/sebas/gurobi1102/gurobi.lic

Gurobi 11.0.2 (linux64, gurobi_cl) logging started Mon Mar 24 11:48:24 2025

Set parameter WLSAccessID
Set parameter WLSSecret
Set parameter LicenseID to value 2526083
Set parameter LogFile to value "gurobi.log"
Using license file /home/sebas/gurobi1102/gurobi.lic

Gurobi 11.0.2 (linux64, gurobi_cl) logging started Mon Mar 24 12:04:15 2025

Set parameter WLSAccessID
Set parameter WLSSecret
Set parameter LicenseID to value 2526083
Set parameter LogFile to value "gurobi.log"
Using license file /home/sebas/gurobi1102/gurobi.lic

Gurobi 11.0.2 (linux64, gurobi_cl) logging started Mon Mar 24 12:05:25 2025

Set parameter WLSAccessID
Set parameter WLSSecret
Set parameter LicenseID to value 2526083
Set parameter LogFile to value "gurobi.log"
Using license file /home/sebas/gurobi1102/gurobi.lic

Gurobi 11.0.2 (linux64, gurobi_cl) logging started Mon Mar 24 12:06:38 2025

Set parameter WLSAccessID
Set parameter WLSSecret
Set parameter LicenseID to value 2526083
Set parameter LogFile to value "gurobi.log"
Using license file /home/sebas/gurobi1102/gurobi.lic

Gurobi 11.0.2 (linux64, gurobi_cl) logging started Mon Mar 24 12:40:48 2025

Set parameter WLSAccessID
Set parameter WLSSecret
Set parameter LicenseID to value 2526083
Set parameter LogFile to value "gurobi.log"
Using license file /home/sebas/gurobi1102/gurobi.lic
Academic license 2526083 - for non-commercial use only - registered to se___@gmail.com

Gurobi 11.0.2 (linux64, gurobi_cl) logging started Sun Jun 29 00:09:25 2025

Set parameter WLSAccessID
Set parameter WLSSecret
Set parameter LicenseID to value 2526083
Set parameter LogFile to value "gurobi.log"
Using license file /home/sebas/gurobi1102/gurobi.lic
